HUN,8,6,431
5,30,1,21,4,6,3,11,0,26,2,27
5,4,1,28,4,14,0,27,3,17,2,3
4,17,1,20,3,3,0,15,2,12,5,28
5,8,4,1,1,7,0,29,2,18,3,7
5,12,0,15,4,14,1,10,3,6,2,29
0,22,2,4,1,28,4,4,3,18,5,14
5,1,2,2,3,12,1,14,4,11,0,14
4,9,1,14,0,5,3,4,5,16,2,2
